job_count = 18 ;
duration = [|32, 14, 19, 2|9, 12, 18, 3|29, 5, 9, 4|16, 19, 10, 1|17, 13, 6, 4|39, 11, 7, 7|10, 20, 12, 7|33, 26, 16, 9|35, 24, 16, 9|14, 6, 3, 5|8, 5, 9, 2|15, 12, 7, 4|29, 20, 10, 3|8, 7, 19, 5|28, 15, 5, 9|37, 8, 19, 6|19, 22, 11, 8|6, 6, 19, 3|] ;
machine_count = 4 ;
cost = [|10, 26, 44, 78|14, 21, 52, 67|17, 20, 42, 64|13, 25, 45, 60|14, 32, 34, 65|15, 30, 59, 57|16, 26, 38, 51|19, 36, 51, 49|11, 29, 47, 64|18, 26, 44, 65|18, 39, 54, 45|16, 35, 41, 46|14, 26, 44, 48|14, 27, 48, 61|12, 33, 48, 52|10, 22, 31, 66|17, 21, 51, 76|14, 23, 44, 77|] ;
deadline = [37, 37, 37, 37, 37, 37, 37, 37, 37, 37, 37, 37, 37, 37, 37, 37, 37, 37] ;
release = [0, 0, 0, 0, 0, 0, 0, 0, 0, 0, 0, 0, 0, 0, 0, 0, 0, 0] ;
resource = [|7, 7, 7, 7|3, 3, 3, 3|8, 8, 8, 8|1, 1, 1, 1|8, 8, 8, 8|9, 9, 9, 9|3, 3, 3, 3|7, 7, 7, 7|4, 4, 4, 4|8, 8, 8, 8|2, 2, 2, 2|6, 6, 6, 6|4, 4, 4, 4|4, 4, 4, 4|3, 3, 3, 3|3, 3, 3, 3|8, 8, 8, 8|7, 7, 7, 7|] ;
capacities = [10, 10, 10, 10] ;
